% Instancia problemática tipo: COSTOS_PROHIBITIVOS
% Razón: Costos de transporte extremadamente altos (>5000)
% Demanda total: 1637.35
% Suministro total: 1801.08
% Factor holgura: 1.1

nP = 3;
nT = 4;
nC1 = 5;
nC2 = 7;
nA = 67;
nD = 3;

arc_from = [1, 1, 1, 1, 2, 2, 2, 2, 3, 3, 3, 3, 4, 4, 4, 4, 4, 5, 5, 5, 5, 5, 6, 6, 6, 6, 6, 7, 7, 7, 7, 7, 8, 8, 8, 8, 8, 8, 8, 9, 9, 9, 9, 9, 9, 9, 10, 10, 10, 10, 10, 10, 10, 11, 11, 11, 11, 11, 11, 11, 12, 12, 12, 12, 12, 12, 12];
arc_to = [4, 5, 6, 7, 4, 5, 6, 7, 4, 5, 6, 7, 8, 9, 10, 11, 12, 8, 9, 10, 11, 12, 8, 9, 10, 11, 12, 8, 9, 10, 11, 12, 13, 14, 15, 16, 17, 18, 19, 13, 14, 15, 16, 17, 18, 19, 13, 14, 15, 16, 17, 18, 19, 13, 14, 15, 16, 17, 18, 19, 13, 14, 15, 16, 17, 18, 19];

supply = [600.36, 600.36, 600.36, 0, 0, 0, 0, 0, 0, 0, 0, 0, 0, 0, 0, 0, 0, 0, 0];
demand = [0, 0, 0, 0, 0, 0, 0, 108.07, 84.10, 106.53, 148.97, 98.56, 162.73, 136.40, 133.84, 176.59, 179.63, 144.46, 157.47];

max_capacity = [795, 1414, 3181];

install_cost = array2d(1..nA, 1..nD, [
  20, 24, 32,
  50, 62, 78,
  20, 24, 32,
  50, 62, 78,
  20, 24, 32,
  50, 62, 78,
  20, 24, 32,
  50, 62, 78,
  20, 24, 32,
  50, 62, 78,
  20, 24, 32,
  50, 62, 78,
  20, 24, 32,
  50, 62, 78,
  20, 24, 32,
  50, 62, 78,
  20, 24, 32,
  50, 62, 78,
  20, 24, 32,
  50, 62, 78,
  20, 24, 32,
  50, 62, 78,
  20, 24, 32,
  50, 62, 78,
  20, 24, 32,
  50, 62, 78,
  20, 24, 32,
  50, 62, 78,
  20, 24, 32,
  50, 62, 78,
  20, 24, 32,
  50, 62, 78,
  20, 24, 32,
  50, 62, 78,
  20, 24, 32,
  50, 62, 78,
  20, 24, 32,
  50, 62, 78,
  20, 24, 32,
  50, 62, 78,
  20, 24, 32,
  50, 62, 78,
  20, 24, 32,
  50, 62, 78,
  20, 24, 32,
  50, 62, 78,
  20, 24, 32,
  50, 62, 78,
  20, 24, 32,
  50, 62, 78,
  20, 24, 32,
  50, 62, 78,
  20, 24, 32,
  50, 62, 78,
  20, 24, 32,
  50, 62, 78,
  20, 24, 32,
  50, 62, 78,
  20, 24, 32,
  50, 62, 78,
  20, 24, 32,
  50, 62, 78,
  20, 24, 32,
  50, 62, 78,
  20, 24, 32,
  50, 62, 78,
  20, 24, 32
]);

trans_cost = [7321.95, 9450.62, 19530.64, 13687.70, 13132.93, 16219.63, 5857.48, 13762.66, 12542.76, 17790.80, 7361.49, 19411.68, 6201.67, 7787.37, 13925.53, 15128.19, 8528.06, 6798.30, 18354.31, 8693.23, 13917.79, 14290.72, 11288.37, 13755.08, 12841.74, 19020.59, 8063.89, 15742.88, 8580.29, 10936.79, 15075.35, 9499.96, 9742.66, 16277.97, 6088.15, 11874.28, 19976.82, 19941.45, 6098.91, 8197.31, 8978.01, 18998.89, 18212.96, 18189.05, 10542.91, 7366.20, 17506.17, 15553.10, 14175.17, 19808.50, 14809.64, 5117.35, 17256.56, 9490.68, 14950.83, 19083.95, 7014.37, 6731.43, 6605.54, 13298.35, 9085.22, 14072.45, 15764.18, 8053.96, 14513.57, 8959.76, 12327.98];
